100 500 10 200 10 100
19 132
88 25
35 78
90 101
37 70
47 47
82 61
33 159
51 117
72 178
50 81
12 99
81 116
85 132
18 162
100 77
24 122
30 85
72 38
33 49
21 87
54 147
83 171
84 56
27 74
57 49
32 146
97 109
64 40
56 65
35 24
15 107
60 46
69 148
63 179
84 16
25 116
29 47
69 124
11 17
75 160
16 177
34 186
62 200
46 138
76 61
81 18
38 132
34 139
24 162
52 87
77 26
90 165
29 100
79 21
60 97
42 177
12 120
32 193
17 52
89 27
94 148
82 60
62 123
81 170
72 150
38 96
54 70
60 72
92 182
19 133
44 97
71 186
72 114
81 170
25 173
79 81
92 65
93 189
28 164
29 105
59 57
91 100
37 116
92 121
96 88
33 188
16 175
56 35
50 194
19 88
59 34
73 86
11 135
93 88
92 76
36 11
32 49
70 62
85 107
